Cost: 980
0-57-52-53-44-68-46-40-42-35-34-32-26-22-18-19-16-25-27-6-7-9-13-17-28-70-31-65-1-0
0-3-4-8-59-0
Cost: 980
0-3-4-8-59-57-0
0-52-53-44-43-68-46-40-35-34-32-26-22-18-19-16-25-27-6-7-9-13-17-28-70-31-65-2-0
Cost: 980
0-57-52-53-44-68-46-40-42-35-34-32-26-22-18-19-16-25-27-6-7-9-13-17-28-70-31-65-1-0
0-3-4-8-59-0
Cost: 980
0-3-4-8-59-56-0
0-52-53-44-43-68-46-40-35-34-32-26-22-18-19-16-64-25-27-6-7-9-13-17-28-70-31-2-0
Cost: 980
0-3-4-8-59-57-0
0-52-53-44-68-46-40-42-35-34-32-26-22-18-19-16-25-27-6-7-9-13-17-28-70-31-65-1-0
Cost: 980
0-3-4-8-59-0
0-57-52-53-44-68-46-40-42-35-34-32-26-22-18-19-16-25-27-6-7-9-13-17-64-28-70-31-1-0
Cost: 980
0-3-4-8-59-0
0-56-52-53-44-68-46-40-42-35-34-32-26-22-18-19-16-17-25-27-6-7-9-13-28-70-31-65-1-0
Cost: 980
0-3-4-8-59-0
0-56-52-53-44-68-46-40-42-35-34-32-26-22-18-19-16-17-25-27-6-7-9-13-28-70-31-65-1-0
Cost: 980
0-3-4-8-59-0
0-56-52-53-44-68-46-40-42-35-34-32-26-22-18-19-16-17-25-27-6-7-9-13-28-70-31-65-1-0
Cost: 980
0-3-4-8-59-0
0-56-52-53-44-68-46-40-42-35-34-32-26-22-18-19-16-17-25-27-6-7-9-13-28-70-31-65-1-0
Cost: 980
0-52-53-43-42-68-46-40-35-34-32-26-22-18-19-16-17-64-25-27-6-7-9-13-28-70-31-1-0
0-3-4-8-59-57-0
Cost: 980
0-3-4-8-59-0
0-57-52-53-44-43-68-46-40-35-34-32-26-22-18-19-16-25-27-6-7-9-13-17-64-28-70-31-1-0
Cost: 980
0-3-4-8-59-0
0-56-52-53-43-68-46-40-42-35-34-32-26-22-18-19-16-64-25-27-6-7-9-13-17-28-70-31-1-0
Cost: 980
0-52-53-44-68-46-40-42-35-34-32-26-22-18-19-16-25-27-6-7-9-13-17-28-70-31-65-1-0
0-3-4-8-59-57-0
Cost: 980
0-52-53-43-42-68-46-40-35-34-32-26-22-18-19-16-17-64-25-27-6-7-9-13-28-70-31-1-0
0-3-4-8-59-57-0
Cost: 980
0-52-53-43-42-68-46-40-35-34-32-26-22-18-19-16-17-64-25-27-6-7-9-13-28-70-31-1-0
0-3-4-8-59-57-0
Cost: 980
0-52-53-43-42-68-46-40-35-34-32-26-22-18-19-16-17-64-25-27-6-7-9-13-28-70-31-1-0
0-3-4-8-59-57-0
Cost: 980
0-52-53-43-42-68-46-40-35-34-32-26-22-18-19-16-17-64-25-27-6-7-9-13-28-70-31-1-0
0-3-4-8-59-57-0
Cost: 980
0-52-53-43-68-46-40-42-35-34-32-26-22-18-19-16-17-64-25-27-6-7-9-13-28-70-31-1-0
0-3-4-8-59-56-0
Cost: 980
0-3-4-8-59-0
0-57-52-53-44-68-46-40-42-35-34-32-26-22-18-19-16-25-27-6-7-9-13-17-64-28-70-31-1-0
Cost: 980
0-52-53-43-42-68-46-40-35-34-32-26-22-18-19-16-17-25-27-6-7-9-13-28-70-31-65-1-0
0-3-4-8-59-57-0
Cost: 980
0-52-53-43-42-68-46-40-35-34-32-26-22-18-19-16-17-25-27-6-7-9-13-28-70-31-65-1-0
0-3-4-8-59-57-0
Cost: 980
0-52-53-44-68-46-40-42-35-34-32-26-22-18-19-16-25-27-6-7-9-13-17-64-28-70-31-1-0
0-3-4-8-59-57-0
Cost: 980
0-52-53-44-68-46-40-42-35-34-32-26-22-18-19-16-25-27-6-7-9-13-17-64-28-70-31-1-0
0-3-4-8-59-57-0
Cost: 980
0-52-53-44-43-68-46-40-35-34-32-26-22-18-19-16-25-27-6-7-9-13-17-28-70-31-65-2-0
0-3-4-8-59-56-0
Cost: 980
0-52-53-44-68-46-40-42-35-34-32-26-22-18-19-16-25-27-6-7-9-13-17-64-28-70-31-1-0
0-3-4-8-59-57-0
Cost: 980
0-3-4-8-59-0
0-57-52-53-44-68-46-40-42-35-34-32-26-22-18-19-16-25-27-6-7-9-13-17-64-28-70-31-1-0
Cost: 980
0-52-53-43-42-68-46-40-35-34-32-26-22-18-19-16-17-25-27-6-7-9-13-28-70-31-65-1-0
0-3-4-8-59-57-0
Cost: 980
0-52-53-43-42-68-46-40-35-34-32-26-22-18-19-16-17-25-27-6-7-9-13-28-70-31-65-1-0
0-3-4-8-59-57-0
Cost: 980
0-56-52-53-43-68-46-40-42-35-34-32-26-22-18-19-16-17-25-27-6-7-9-13-28-70-31-65-2-0
0-3-4-8-59-0
Cost: 980
0-56-52-53-44-68-46-40-42-35-34-32-26-22-18-19-16-25-27-6-7-9-13-17-28-70-31-65-2-0
0-3-4-8-59-0
Cost: 980
0-3-4-8-59-0
0-57-52-53-44-43-68-46-40-35-34-32-26-22-18-19-16-17-25-27-6-7-9-13-64-28-70-31-1-0
Cost: 980
0-3-4-8-59-0
0-57-52-53-44-43-68-46-40-35-34-32-26-22-18-19-16-17-64-25-27-6-7-9-13-28-70-31-2-0
Cost: 980
0-52-53-44-68-46-40-42-35-34-32-26-22-18-19-16-25-27-6-7-9-13-17-28-70-31-65-2-0
0-3-4-8-59-57-0
